
1.0000000
9.18163332	0.0	0.0	
-4.59081666	4.97102071	0.58578594	
0.0	0.0	33.95945733	
H  Cu  Ru  
1  36  12  
Cartesian
4.85626901859835	3.0761967127558387	25.087099483775372	
0.7547291571080015	1.6457380302055582	20.019014261702793	
0.7547291111998344	4.959751853442294	22.673501819259027	
5.345545771199834	3.3027449169688223	17.950312304551982	
0.7547291571080015	3.325282679794442	17.92217474129721	
5.345545771199835	1.6682757930311776	19.99087669844802	
0.7547291111998349	0.0112688565577061	22.059578649740967	
3.08135843760033	2.485510355	18.970594501500003	
7.672175051692164	0.8285034682367357	21.03929645865081	
-1.509458268307836	4.142517241763264	23.693784010349187	
-0.7547291111998348	1.6682757930311776	23.386822431448017	
3.8360875488001653	0.0112688565577061	18.66363291674097	
3.836087502891998	3.325282679794442	21.318120474297206	
3.8360875488001653	4.959751853442294	19.27755608625903	
-0.7547291111998349	3.3027449169688223	21.346258037551983	
3.836087502891998	1.6457380302055582	23.41495999470279	
6.100274928307837	0.8285034682367357	17.64335072565081	
-3.081358391692163	4.142517241763264	20.29783827734919	
1.5094582223996702	2.485510355	22.3665402345	
1.5302722046972779	0.8285034682367357	17.64335072565081	
1.5302722046972774	4.142517241763264	20.29783827734919	
6.121088910605445	2.485510355	22.3665402345	
-1.5302722506054445	2.485510355	18.970594501500003	
3.0605444553027223	0.8285034682367357	21.03929645865081	
3.0605444553027223	4.142517241763264	23.693784010349187	
0.7547291571080015	1.6457380302055582	13.227122795702792	
0.7547291111998344	4.959751853442294	15.88161035325903	
5.345545771199834	3.3027449169688223	11.158420838551981	
0.7547291571080015	3.325282679794442	11.130283275297208	
5.345545771199835	1.6682757930311776	13.198985232448019	
0.7547291111998349	0.0112688565577061	15.26768718374097	
3.08135843760033	2.485510355	12.178703035499998	
7.672175051692164	0.8285034682367357	14.24740499265081	
-1.509458268307836	4.142517241763264	16.901892544349188	
-0.7547291111998348	1.6682757930311776	16.594930965448018	
3.8360875488001653	0.0112688565577061	11.871741450740968	
3.836087502891998	3.325282679794442	14.526229008297207	
3.8360875488001653	4.959751853442294	12.48566462025903	
-0.7547291111998349	3.3027449169688223	14.554366571551983	
3.836087502891998	1.6457380302055582	16.62306852870279	
6.100274928307837	0.8285034682367357	10.85145925965081	
-3.081358391692163	4.142517241763264	13.50594681134919	
1.5094582223996702	2.485510355	15.5746487685	
1.5302722046972779	0.8285034682367357	10.85145925965081	
1.5302722046972774	4.142517241763264	13.50594681134919	
6.121088910605445	2.485510355	15.5746487685	
-1.5302722506054445	2.485510355	12.178703035499998	
3.0605444553027223	0.8285034682367357	14.24740499265081	
3.0605444553027223	4.142517241763264	16.901892544349188	
